succeed=True
[CUDA] cuda: usage: 5.77 GB
0 :  {link #0 : 1}, {link #1 : 2}, {link #2 : 3},
1 :  {link #0 : 2}, {link #1 : 3}, {link #2 : 0},
2 :  {link #0 : 3}, {link #1 : 0}, {link #2 : 1},
3 :  {link #0 : 0}, {link #1 : 1}, {link #2 : 2},
0 :  {link #0 : 1}, {link #1 : 2}, {link #2 : 3},
1 :  {link #0 : 2}, {link #1 : 3}, {link #2 : 0},
2 :  {link #0 : 3}, {link #1 : 0}, {link #2 : 1},
3 :  {link #0 : 0}, {link #1 : 1}, {link #2 : 2},
0 :  {link #0 : 1}, {link #1 : 2}, {link #2 : 3},
1 :  {link #0 : 2}, {link #1 : 3}, {link #2 : 0},
2 :  {link #0 : 3}, {link #1 : 0}, {link #2 : 1},
3 :  {link #0 : 0}, {link #1 : 1}, {link #2 : 2},
0 : local 72, cpu 8 {link #0 : g1 24}, {link #1 : g2 24}, {link #2 : g3 24},
1 : local 72, cpu 8 {link #0 : g2 24}, {link #1 : g3 24}, {link #2 : g0 24},
2 : local 72, cpu 8 {link #0 : g3 24}, {link #1 : g0 24}, {link #2 : g1 24},
3 : local 72, cpu 8 {link #0 : g0 24}, {link #1 : g1 24}, {link #2 : g2 24},
0 : local 72, cpu 8 {link #0 : g1 24}, {link #1 : g2 24}, {link #2 : g3 24},
1 : local 72, cpu 8 {link #0 : g2 24}, {link #1 : g3 24}, {link #2 : g0 24},
2 : local 72, cpu 8 {link #0 : g3 24}, {link #1 : g0 24}, {link #2 : g1 24},
3 : local 72, cpu 8 {link #0 : g0 24}, {link #1 : g1 24}, {link #2 : g2 24},
0 : local 72, cpu 8 {link #0 : g1 24}, {link #1 : g2 24}, {link #2 : g3 24},
1 : local 72, cpu 8 {link #0 : g2 24}, {link #1 : g3 24}, {link #2 : g0 24},
2 : local 72, cpu 8 {link #0 : g3 24}, {link #1 : g0 24}, {link #2 : g1 24},
3 : local 72, cpu 8 {link #0 : g0 24}, {link #1 : g1 24}, {link #2 : g2 24},
0 :  {link #0 : 1}, {link #1 : 2}, {link #2 : 3},
1 :  {link #0 : 2}, {link #1 : 3}, {link #2 : 0},
2 :  {link #0 : 3}, {link #1 : 0}, {link #2 : 1},
3 :  {link #0 : 0}, {link #1 : 1}, {link #2 : 2},
0 : local 72, cpu 8 {link #0 : g1 24}, {link #1 : g2 24}, {link #2 : g3 24},
1 : local 72, cpu 8 {link #0 : g2 24}, {link #1 : g3 24}, {link #2 : g0 24},
2 : local 72, cpu 8 {link #0 : g3 24}, {link #1 : g0 24}, {link #2 : g1 24},
3 : local 72, cpu 8 {link #0 : g0 24}, {link #1 : g1 24}, {link #2 : g2 24},
Set parameter WLSAccessID
Set parameter WLSSecret
Set parameter LicenseID
Set parameter TimeLimit to value 200
Set parameter MIPGap to value 0.05
Set parameter LogFile to value "cppsolver.log"
Set parameter Threads to value 40
Academic license - for non-commercial use only - registered to xiaoniu.sxn@sjtu.edu.cn
Gurobi Optimizer version 9.5.1 build v9.5.1rc2 (linux64)
Thread count: 40 physical cores, 80 logical processors, using up to 40 threads
Academic license - for non-commercial use only - registered to xiaoniu.sxn@sjtu.edu.cn
Optimize a model with 6892 rows, 2249 columns and 21144 nonzeros
Model fingerprint: 0xf8e9c6ef
Variable types: 5 continuous, 2244 integer (2244 binary)
Coefficient statistics:
  Matrix range     [2e-09, 2e+04]
  Objective range  [1e+00, 1e+00]
  Bounds range     [1e+00, 1e+00]
  RHS range        [6e-01, 4e+03]
Warning: Model contains large matrix coefficient range
         Consider reformulating model or setting NumericFocus parameter
         to avoid numerical issues.
Found heuristic solution: objective 21126.305040
Presolve removed 5192 rows and 447 columns
Presolve time: 0.02s
Presolved: 1700 rows, 1802 columns, 5088 nonzeros
Variable types: 0 continuous, 1802 integer (1802 binary)
Found heuristic solution: objective 20533.787864

Root relaxation: objective 1.654836e+04, 1280 iterations, 0.01 seconds (0.00 work units)

    Nodes    |    Current Node    |     Objective Bounds      |     Work
 Expl Unexpl |  Obj  Depth IntInf | Incumbent    BestBd   Gap | It/Node Time

     0     0 16548.3645    0   25 20533.7879 16548.3645  19.4%     -    0s
H    0     0                    17258.841549 16548.3645  4.12%     -    0s

Explored 1 nodes (1990 simplex iterations) in 0.05 seconds (0.03 work units)
Thread count was 40 (of 80 available processors)

Solution count 3: 17258.8 20533.8 21126.3 

Optimal solution found (tolerance 5.00e-02)
Best objective 1.725884154943e+04, best bound 1.654836453356e+04, gap 4.1166%
coll_cache:optimal_local_rate=0.0825592,0.0869801,0.062614,0.0922445,
coll_cache:optimal_remote_rate=0.241839,0.237418,0.261784,0.232153,
coll_cache:optimal_cpu_rate=0.675602,0.675602,0.675602,0.675602,
z=17258.8
test_result:init:feat_nbytes=375030526464
test_result:init:cache_nbytes=2625212928
test_result:init:feat_nbytes=375030526464
test_result:init:cache_nbytes=2625212928
test_result:init:feat_nbytes=375030526464
test_result:init:cache_nbytes=2625212928
test_result:init:feat_nbytes=375030526464
test_result:init:cache_nbytes=2625212928
    [Step(average) Profiler Level 1 E3 S999]
        L1  sample           0.003326 | send           0.000000
        L1  recv             0.000000 | copy           0.081443 | convert time 0.000000 | train  0.024243
        L1  feature nbytes    1.36 GB | label nbytes 0.00 Bytes
        L1  id nbytes      0.00 Bytes | graph nbytes 0.00 Bytes
        L1  miss nbytes     949.18 MB | remote nbytes  335.37 MB
        L1  num nodes               0 | num samples           0
        L1  seq duration     0.000000 | refresh duration   0.000000
    [Step(average) Profiler Level 2 E3 S999]
        L2  shuffle     0.000000 | core sample  0.000000 | id remap        0.000000
        L2  graph copy  0.000000 | id copy      0.000000 | cache feat copy 0.081443
        L2  last layer sample time 0.000000 | size 0.000000
    [Step(average) Profiler Level 3 E3 S999]
        L3  khop sample coo  0.000000 | khop sort coo      0.000000 | khop count edge     0.000000 | khop compact edge 0.000000
        L3  walk sample coo  0.000000 | walk topk total    0.000000 | walk topk step1     0.000000 | walk topk step2   0.000000
        L3  walk topk step3  0.000000 | walk topk step4    0.000000 | walk topk step5     0.000000
        L3  walk topk step6  0.000000 | walk topk step7    0.000000
        L3  remap unique     0.000000 | remap populate     0.000000 | remap mapnode       0.000000 | remap mapedge     0.000000
        L3  cache get_index  0.000628 | cache copy_index   0.000000 | cache extract_miss  0.000000
        L3  cache copy_miss  0.000000 | cache combine_miss 0.080766 | cache combine cache 0.000343 | cache combine remote 0.002879
        L3  label extract  0.000000
    [Profiler Level Percentiles E3 S999]
        p50.00_tail_logl2featcopy=0.085281
        p90.00_tail_logl2featcopy=0.086153
        p95.00_tail_logl2featcopy=0.086363
        p99.00_tail_logl2featcopy=0.086874
        p99.90_tail_logl2featcopy=0.089017
[CUDA] cuda: usage: 14.56 GB
Rank=2, Graph loaded.
!!!!dist_homo_graph enumerate latency per epoch: 0.017599, per step: 0.000070
presamping
presamping takes 14.558897972106934
Rank=1, Graph loaded.
!!!!dist_homo_graph enumerate latency per epoch: 0.009604, per step: 0.000038
presamping
presamping takes 19.772669792175293
Rank=3, Graph loaded.
!!!!dist_homo_graph enumerate latency per epoch: 0.009858, per step: 0.000039
presamping
presamping takes 15.886075973510742
config:eval_tsp="2023-04-14 19:26:42"
config:num_worker=4
config:num_intra_size=4
config:root_dir=/nvme/songxiaoniu/graph-learning/wholegraph
config:graph_name=mag240m-homo
config:epochs=4
config:batchsize=2000
config:skip_epoch=2
config:local_step=250
config:presc_epoch=2
config:neighbors=10,25
config:hiddensize=256
config:num_layer=2
config:model=sage
config:framework=dgl
config:dataloaderworkers=0
config:dropout=0.5
config:lr=0.003
config:use_nccl=False
config:use_amp=True
config:use_collcache=True
config:cache_percentage=0.006
config:cache_policy=coll_cache_asymm_link
config:omp_thread_num=40
config:unsupervised=True
config:classnum=153
config:global_barrier=<multiprocessing.synchronize.Barrier object at 0x7fc6b226f460>
config:worker_id=0
creating_intra_node_communicator root=0, local_size=4, world_size=4
Rank=0, Graph loaded.
!!!!dist_homo_graph enumerate latency per epoch: 0.009318, per step: 0.000037
epoch=4 total_steps=1000
presamping
presamping takes 17.786344528198242
start training...
[Epoch 0], time=28.453054189682007, loss=0.6931472420692444
[Epoch 1], time=27.2607581615448, loss=0.6931472420692444
[Epoch 2], time=27.263137817382812, loss=0.6931472420692444
[Epoch 3], time=27.276336431503296, loss=0.6931472420692444
|===========================================================================|
|                  PyTorch CUDA memory summary, device ID 0                 |
|---------------------------------------------------------------------------|
|            CUDA OOMs: 0            |        cudaMalloc retries: 0         |
|===========================================================================|
|        Metric         | Cur Usage  | Peak Usage | Tot Alloc  | Tot Freed  |
|---------------------------------------------------------------------------|
| Allocated memory      |   87510 KB |  724597 KB |    1936 GB |    1936 GB |
|       from large pool |   75722 KB |  713395 KB |    1917 GB |    1917 GB |
|       from small pool |   11788 KB |   14131 KB |      19 GB |      19 GB |
|---------------------------------------------------------------------------|
| Active memory         |   87510 KB |  724597 KB |    1936 GB |    1936 GB |
|       from large pool |   75722 KB |  713395 KB |    1917 GB |    1917 GB |
|       from small pool |   11788 KB |   14131 KB |      19 GB |      19 GB |
|---------------------------------------------------------------------------|
| GPU reserved memory   |    2748 MB |    2748 MB |    2748 MB |       0 B  |
|       from large pool |    2728 MB |    2728 MB |    2728 MB |       0 B  |
|       from small pool |      20 MB |      20 MB |      20 MB |       0 B  |
|---------------------------------------------------------------------------|
| Non-releasable memory |   35369 KB |    1507 MB |    1882 GB |    1882 GB |
|       from large pool |   32822 KB |    1504 MB |    1861 GB |    1861 GB |
|       from small pool |    2547 KB |       6 MB |      21 GB |      21 GB |
|---------------------------------------------------------------------------|
| Allocations           |      62    |      81    |  213815    |  213753    |
|       from large pool |      15    |      26    |   71527    |   71512    |
|       from small pool |      47    |      58    |  142288    |  142241    |
|---------------------------------------------------------------------------|
| Active allocs         |      62    |      81    |  213815    |  213753    |
|       from large pool |      15    |      26    |   71527    |   71512    |
|       from small pool |      47    |      58    |  142288    |  142241    |
|---------------------------------------------------------------------------|
| GPU reserved segments |      25    |      25    |      25    |       0    |
|       from large pool |      15    |      15    |      15    |       0    |
|       from small pool |      10    |      10    |      10    |       0    |
|---------------------------------------------------------------------------|
| Non-releasable allocs |      22    |      39    |   79441    |   79419    |
|       from large pool |       7    |      18    |   39936    |   39929    |
|       from small pool |      15    |      26    |   39505    |   39490    |
|---------------------------------------------------------------------------|
| Oversize allocations  |       0    |       0    |       0    |       0    |
|---------------------------------------------------------------------------|
| Oversize GPU segments |       0    |       0    |       0    |       0    |
|===========================================================================|

[TRAIN_TIME] train time is 110.255254 seconds
[EPOCH_TIME] 27.563813 seconds, maybe large due to not enough epoch skipped.
[EPOCH_TIME] 27.269861 seconds

